var 1..3: i;
var 0..5: y;
var 0..5: a;
var 0..5: b;
var 0..5: c;
var int: o;
var 0..5: p;
array [1..3] of var int: x = [a,b,c];

constraint array_var_int_element(i,x,o);
constraint int_times(o,y,b);
constraint int_times(o,b,p);
solve  satisfy;
